6334
9155
10015
6912
4411
5418
8673
10153
4167
5601
9147
767
7636
1117
3906
5424
8690
9396
2880
2465
5128
9865
8432
1185
9470
1066
4930
5458
898
6287
4452
5157
1145
4846
7310
3455
6882
2825
2285
7070
5663
2947
1669
9215
7544
8030
2459
852
7744
9889
8398
